certificates/rado_a15_c250_N50.cnf
c Rad2 upper bound instance: x1 + 15*x2 - x3 = 250, interval [1,50]
p cnf 50 330
1 6 17 0
-1 -6 -17 0
1 18 21 0
-1 -18 -21 0
1 19 36 0
-1 -19 -36 0
2 7 17 0
-2 -7 -17 0
2 18 22 0
-2 -18 -22 0
2 19 37 0
-2 -19 -37 0
3 8 17 0
-3 -8 -17 0
3 18 23 0
-3 -18 -23 0
3 19 38 0
-3 -19 -38 0
4 9 17 0
-4 -9 -17 0
4 18 24 0
-4 -18 -24 0
4 19 39 0
-4 -19 -39 0
5 10 17 0
-5 -10 -17 0
5 18 25 0
-5 -18 -25 0
5 19 40 0
-5 -19 -40 0
6 11 17 0
-6 -11 -17 0
6 18 26 0
-6 -18 -26 0
6 19 41 0
-6 -19 -41 0
7 12 17 0
-7 -12 -17 0
7 18 27 0
-7 -18 -27 0
7 19 42 0
-7 -19 -42 0
8 13 17 0
-8 -13 -17 0
8 18 28 0
-8 -18 -28 0
8 19 43 0
-8 -19 -43 0
9 14 17 0
-9 -14 -17 0
9 18 29 0
-9 -18 -29 0
9 19 44 0
-9 -19 -44 0
10 15 17 0
-10 -15 -17 0
10 18 30 0
-10 -18 -30 0
10 19 45 0
-10 -19 -45 0
1 11 16 0
-1 -11 -16 0
11 16 17 0
-11 -16 -17 0
11 18 31 0
-11 -18 -31 0
11 19 46 0
-11 -19 -46 0
2 12 16 0
-2 -12 -16 0
12 17 0
-12 -17 0
12 18 32 0
-12 -18 -32 0
12 19 47 0
-12 -19 -47 0
3 13 16 0
-3 -13 -16 0
13 17 18 0
-13 -17 -18 0
13 18 33 0
-13 -18 -33 0
13 19 48 0
-13 -19 -48 0
4 14 16 0
-4 -14 -16 0
14 17 19 0
-14 -17 -19 0
14 18 34 0
-14 -18 -34 0
14 19 49 0
-14 -19 -49 0
5 15 16 0
-5 -15 -16 0
15 17 20 0
-15 -17 -20 0
15 18 35 0
-15 -18 -35 0
15 19 50 0
-15 -19 -50 0
6 16 0
-6 -16 0
16 17 21 0
-16 -17 -21 0
16 18 36 0
-16 -18 -36 0
7 16 17 0
-7 -16 -17 0
17 22 0
-17 -22 0
17 18 37 0
-17 -18 -37 0
8 16 18 0
-8 -16 -18 0
17 18 23 0
-17 -18 -23 0
18 38 0
-18 -38 0
9 16 19 0
-9 -16 -19 0
17 19 24 0
-17 -19 -24 0
18 19 39 0
-18 -19 -39 0
10 16 20 0
-10 -16 -20 0
17 20 25 0
-17 -20 -25 0
18 20 40 0
-18 -20 -40 0
11 16 21 0
-11 -16 -21 0
17 21 26 0
-17 -21 -26 0
18 21 41 0
-18 -21 -41 0
12 16 22 0
-12 -16 -22 0
17 22 27 0
-17 -22 -27 0
18 22 42 0
-18 -22 -42 0
13 16 23 0
-13 -16 -23 0
17 23 28 0
-17 -23 -28 0
18 23 43 0
-18 -23 -43 0
14 16 24 0
-14 -16 -24 0
17 24 29 0
-17 -24 -29 0
18 24 44 0
-18 -24 -44 0
15 16 25 0
-15 -16 -25 0
17 25 30 0
-17 -25 -30 0
18 25 45 0
-18 -25 -45 0
1 15 26 0
-1 -15 -26 0
16 26 0
-16 -26 0
17 26 31 0
-17 -26 -31 0
18 26 46 0
-18 -26 -46 0
2 15 27 0
-2 -15 -27 0
16 17 27 0
-16 -17 -27 0
17 27 32 0
-17 -27 -32 0
18 27 47 0
-18 -27 -47 0
3 15 28 0
-3 -15 -28 0
16 18 28 0
-16 -18 -28 0
17 28 33 0
-17 -28 -33 0
18 28 48 0
-18 -28 -48 0
4 15 29 0
-4 -15 -29 0
16 19 29 0
-16 -19 -29 0
17 29 34 0
-17 -29 -34 0
18 29 49 0
-18 -29 -49 0
5 15 30 0
-5 -15 -30 0
16 20 30 0
-16 -20 -30 0
17 30 35 0
-17 -30 -35 0
18 30 50 0
-18 -30 -50 0
6 15 31 0
-6 -15 -31 0
16 21 31 0
-16 -21 -31 0
17 31 36 0
-17 -31 -36 0
7 15 32 0
-7 -15 -32 0
16 22 32 0
-16 -22 -32 0
17 32 37 0
-17 -32 -37 0
8 15 33 0
-8 -15 -33 0
16 23 33 0
-16 -23 -33 0
17 33 38 0
-17 -33 -38 0
9 15 34 0
-9 -15 -34 0
16 24 34 0
-16 -24 -34 0
17 34 39 0
-17 -34 -39 0
10 15 35 0
-10 -15 -35 0
16 25 35 0
-16 -25 -35 0
17 35 40 0
-17 -35 -40 0
11 15 36 0
-11 -15 -36 0
16 26 36 0
-16 -26 -36 0
17 36 41 0
-17 -36 -41 0
12 15 37 0
-12 -15 -37 0
16 27 37 0
-16 -27 -37 0
17 37 42 0
-17 -37 -42 0
13 15 38 0
-13 -15 -38 0
16 28 38 0
-16 -28 -38 0
17 38 43 0
-17 -38 -43 0
14 15 39 0
-14 -15 -39 0
16 29 39 0
-16 -29 -39 0
17 39 44 0
-17 -39 -44 0
15 40 0
-15 -40 0
16 30 40 0
-16 -30 -40 0
17 40 45 0
-17 -40 -45 0
1 14 41 0
-1 -14 -41 0
15 16 41 0
-15 -16 -41 0
16 31 41 0
-16 -31 -41 0
17 41 46 0
-17 -41 -46 0
2 14 42 0
-2 -14 -42 0
15 17 42 0
-15 -17 -42 0
16 32 42 0
-16 -32 -42 0
17 42 47 0
-17 -42 -47 0
3 14 43 0
-3 -14 -43 0
15 18 43 0
-15 -18 -43 0
16 33 43 0
-16 -33 -43 0
17 43 48 0
-17 -43 -48 0
4 14 44 0
-4 -14 -44 0
15 19 44 0
-15 -19 -44 0
16 34 44 0
-16 -34 -44 0
17 44 49 0
-17 -44 -49 0
5 14 45 0
-5 -14 -45 0
15 20 45 0
-15 -20 -45 0
16 35 45 0
-16 -35 -45 0
17 45 50 0
-17 -45 -50 0
6 14 46 0
-6 -14 -46 0
15 21 46 0
-15 -21 -46 0
16 36 46 0
-16 -36 -46 0
7 14 47 0
-7 -14 -47 0
15 22 47 0
-15 -22 -47 0
16 37 47 0
-16 -37 -47 0
8 14 48 0
-8 -14 -48 0
15 23 48 0
-15 -23 -48 0
16 38 48 0
-16 -38 -48 0
9 14 49 0
-9 -14 -49 0
15 24 49 0
-15 -24 -49 0
16 39 49 0
-16 -39 -49 0
10 14 50 0
-10 -14 -50 0
15 25 50 0
-15 -25 -50 0
16 40 50 0
-16 -40 -50 0
