certificates/rado_a15_c250_N50.drat
17 -46 -47 0
-46 -47 -50 0
22 46 -50 0
-47 -50 0
d -46 -47 -50 0
46 -48 -50 0
-22 -46 0
22 -50 0
d 22 46 -50 0
-50 0
-22 46 0
46 0
-22 0
17 0
-12 0
-41 0
16 0
-11 0
-6 0
-21 0
-7 0
-26 0
-27 0
-36 0
19 0
18 0
15 0
-24 0
-29 0
-44 0
-14 0
-9 0
-37 0
-23 0
-38 0
-28 0
-13 0
-8 0
-39 0
-43 0
-35 0
-10 0
-20 0
-40 0
-42 0
-5 0
-25 0
1 0
2 0
3 0
4 0
47 0
0
